-472.0 7.0 8.0 6.0 7.0 0.0 3.0 5.0 1.0 10.0 2.0 6.0 3.0 7.0 2.0 7.0 2.0 9.0 1.0 2.0 1.0 8.0 0.0 3.0 9.0 9.0 7.0 2.0 1.0 3.0 4.0 7.0 5.0 2.0 6.0 8.0 9.0 2.0 0.0 10.0 3.0 7.0 8.0 7.0 2.0 5.0 8.0 3.0 10.0 10.0 2.0 6.0 7.0 5.0 0.0 6.0 1.0 3.0 9.0 3.0 9.0 7.0 9.0 5.0 9.0 10.0 4.0 1.0 1.0 5.0 3.0 4.0 0.0 8.0 6.0 3.0 1.0 0.0 5.0 5.0 9.0 7.0 10.0 6.0 7.0 4.0 9.0 1.0 8.0 2.0 9.0 10.0 1.0 5.0 0.0 0.0 0.0 
7.0 -465.0 2.0 5.0 9.0 3.0 2.0 7.0 4.0 8.0 10.0 10.0 5.0 10.0 6.0 10.0 2.0 9.0 1.0 9.0 3.0 1.0 2.0 5.0 10.0 3.0 2.0 4.0 1.0 10.0 8.0 10.0 6.0 10.0 3.0 2.0 9.0 7.0 2.0 1.0 2.0 6.0 7.0 5.0 9.0 1.0 6.0 8.0 7.0 3.0 4.0 5.0 4.0 2.0 7.0 8.0 10.0 5.0 4.0 7.0 5.0 3.0 10.0 7.0 5.0 5.0 5.0 10.0 10.0 4.0 1.0 2.0 9.0 4.0 5.0 9.0 2.0 9.0 1.0 2.0 2.0 8.0 4.0 9.0 6.0 0.0 0.0 0.0 0.0 0.0 0.0 0.0 0.0 0.0 0.0 0.0 0.0 
8.0 2.0 -493.0 0.0 1.0 1.0 9.0 2.0 1.0 7.0 5.0 10.0 1.0 1.0 5.0 10.0 7.0 8.0 8.0 7.0 4.0 5.0 2.0 7.0 6.0 7.0 6.0 8.0 8.0 2.0 3.0 9.0 4.0 0.0 1.0 6.0 6.0 6.0 8.0 3.0 2.0 9.0 0.0 5.0 7.0 6.0 10.0 10.0 10.0 1.0 7.0 7.0 4.0 3.0 5.0 5.0 7.0 6.0 0.0 1.0 3.0 10.0 10.0 0.0 7.0 10.0 5.0 7.0 3.0 5.0 7.0 4.0 0.0 9.0 0.0 8.0 7.0 3.0 1.0 5.0 7.0 1.0 2.0 2.0 1.0 5.0 3.0 8.0 6.0 9.0 4.0 7.0 9.0 1.0 6.0 10.0 9.0 
6.0 5.0 0.0 -494.0 10.0 7.0 6.0 3.0 4.0 0.0 1.0 8.0 7.0 1.0 2.0 4.0 10.0 3.0 10.0 6.0 2.0 7.0 2.0 2.0 1.0 4.0 5.0 1.0 0.0 6.0 9.0 10.0 7.0 2.0 10.0 1.0 6.0 9.0 7.0 0.0 6.0 5.0 5.0 2.0 9.0 2.0 9.0 2.0 10.0 2.0 10.0 10.0 7.0 2.0 10.0 1.0 9.0 3.0 1.0 8.0 8.0 3.0 5.0 5.0 1.0 2.0 10.0 8.0 1.0 8.0 4.0 8.0 9.0 5.0 3.0 5.0 1.0 5.0 1.0 6.0 9.0 5.0 6.0 1.0 7.0 1.0 9.0 5.0 10.0 2.0 2.0 4.0 10.0 8.0 3.0 8.0 9.0 
7.0 9.0 1.0 10.0 -492.0 8.0 2.0 5.0 2.0 5.0 4.0 2.0 6.0 6.0 10.0 2.0 5.0 0.0 0.0 8.0 2.0 3.0 4.0 9.0 6.0 6.0 4.0 8.0 9.0 0.0 8.0 3.0 8.0 7.0 7.0 8.0 0.0 5.0 8.0 9.0 4.0 6.0 2.0 4.0 0.0 10.0 7.0 1.0 2.0 10.0 7.0 2.0 8.0 3.0 0.0 2.0 10.0 9.0 3.0 0.0 2.0 3.0 5.0 9.0 9.0 6.0 7.0 8.0 0.0 2.0 8.0 5.0 10.0 10.0 7.0 8.0 3.0 1.0 4.0 0.0 0.0 5.0 9.0 0.0 10.0 6.0 0.0 7.0 5.0 8.0 8.0 1.0 1.0 7.0 9.0 3.0 10.0 
0.0 3.0 1.0 7.0 8.0 -469.0 4.0 9.0 8.0 3.0 8.0 2.0 3.0 10.0 8.0 2.0 7.0 1.0 7.0 5.0 10.0 3.0 7.0 3.0 10.0 10.0 2.0 0.0 8.0 8.0 1.0 3.0 7.0 4.0 0.0 9.0 8.0 8.0 8.0 6.0 8.0 2.0 6.0 0.0 3.0 9.0 1.0 3.0 2.0 3.0 0.0 0.0 8.0 7.0 10.0 5.0 10.0 9.0 3.0 6.0 10.0 5.0 2.0 0.0 4.0 1.0 2.0 5.0 8.0 9.0 10.0 6.0 3.0 1.0 0.0 5.0 9.0 6.0 1.0 6.0 6.0 6.0 4.0 4.0 3.0 2.0 4.0 2.0 6.0 3.0 5.0 5.0 7.0 2.0 8.0 3.0 0.0 
3.0 2.0 9.0 6.0 2.0 4.0 -469.0 9.0 4.0 7.0 9.0 3.0 5.0 4.0 10.0 8.0 10.0 7.0 8.0 10.0 4.0 0.0 10.0 0.0 9.0 9.0 7.0 0.0 5.0 3.0 7.0 0.0 1.0 0.0 2.0 1.0 2.0 3.0 6.0 2.0 8.0 1.0 6.0 2.0 6.0 3.0 10.0 9.0 1.0 1.0 3.0 7.0 2.0 7.0 8.0 0.0 10.0 10.0 4.0 2.0 8.0 6.0 5.0 4.0 6.0 3.0 3.0 5.0 9.0 6.0 10.0 6.0 0.0 6.0 6.0 0.0 10.0 3.0 0.0 2.0 0.0 5.0 1.0 9.0 3.0 2.0 9.0 4.0 0.0 7.0 6.0 0.0 9.0 10.0 5.0 9.0 1.0 
5.0 7.0 2.0 3.0 5.0 9.0 9.0 -417.0 6.0 3.0 4.0 2.0 10.0 0.0 2.0 0.0 8.0 5.0 6.0 4.0 5.0 4.0 6.0 7.0 8.0 7.0 6.0 6.0 5.0 1.0 10.0 2.0 0.0 5.0 1.0 9.0 7.0 6.0 3.0 8.0 0.0 6.0 3.0 5.0 4.0 5.0 7.0 9.0 6.0 5.0 9.0 3.0 0.0 10.0 0.0 4.0 7.0 6.0 0.0 2.0 2.0 6.0 8.0 7.0 10.0 0.0 5.0 1.0 1.0 1.0 1.0 0.0 1.0 1.0 6.0 2.0 3.0 9.0 3.0 0.0 3.0 0.0 8.0 0.0 6.0 3.0 0.0 8.0 10.0 0.0 9.0 0.0 1.0 7.0 2.0 4.0 2.0 
1.0 4.0 1.0 4.0 2.0 8.0 4.0 6.0 -473.0 1.0 9.0 9.0 10.0 9.0 6.0 5.0 0.0 7.0 5.0 3.0 1.0 9.0 4.0 5.0 3.0 0.0 4.0 2.0 1.0 9.0 4.0 1.0 3.0 5.0 10.0 10.0 9.0 10.0 8.0 2.0 6.0 4.0 5.0 3.0 5.0 8.0 6.0 2.0 1.0 3.0 0.0 10.0 3.0 3.0 2.0 8.0 3.0 5.0 9.0 5.0 8.0 6.0 7.0 4.0 3.0 6.0 0.0 0.0 7.0 9.0 6.0 9.0 1.0 2.0 0.0 2.0 5.0 9.0 2.0 2.0 4.0 2.0 7.0 7.0 10.0 6.0 1.0 9.0 5.0 5.0 4.0 8.0 7.0 6.0 9.0 9.0 1.0 
10.0 8.0 7.0 0.0 5.0 3.0 7.0 3.0 1.0 -498.0 4.0 3.0 10.0 8.0 7.0 9.0 4.0 0.0 10.0 10.0 3.0 2.0 2.0 10.0 2.0 1.0 2.0 9.0 5.0 6.0 10.0 8.0 6.0 0.0 1.0 8.0 10.0 5.0 9.0 4.0 3.0 2.0 2.0 1.0 6.0 8.0 2.0 1.0 0.0 10.0 10.0 9.0 6.0 4.0 7.0 4.0 3.0 5.0 7.0 6.0 2.0 4.0 9.0 9.0 2.0 2.0 0.0 7.0 6.0 10.0 4.0 4.0 6.0 7.0 10.0 4.0 0.0 8.0 0.0 8.0 6.0 1.0 7.0 2.0 6.0 3.0 7.0 10.0 7.0 10.0 5.0 1.0 5.0 9.0 3.0 1.0 5.0 
2.0 10.0 5.0 1.0 4.0 8.0 9.0 4.0 9.0 4.0 -449.0 0.0 0.0 5.0 5.0 6.0 2.0 2.0 0.0 5.0 2.0 0.0 8.0 10.0 2.0 0.0 1.0 8.0 0.0 7.0 4.0 8.0 7.0 6.0 1.0 6.0 4.0 4.0 10.0 10.0 3.0 4.0 8.0 10.0 4.0 4.0 6.0 0.0 2.0 6.0 0.0 4.0 3.0 6.0 10.0 3.0 6.0 4.0 10.0 9.0 4.0 4.0 2.0 1.0 4.0 3.0 10.0 5.0 9.0 10.0 6.0 10.0 0.0 9.0 1.0 3.0 7.0 4.0 0.0 4.0 0.0 3.0 4.0 1.0 3.0 2.0 1.0 9.0 3.0 9.0 7.0 6.0 3.0 5.0 0.0 7.0 9.0 
6.0 10.0 10.0 8.0 2.0 2.0 3.0 2.0 9.0 3.0 0.0 -474.0 10.0 6.0 10.0 1.0 8.0 8.0 2.0 4.0 6.0 2.0 7.0 3.0 2.0 1.0 4.0 8.0 9.0 9.0 8.0 0.0 10.0 5.0 3.0 8.0 6.0 8.0 6.0 6.0 6.0 6.0 5.0 3.0 0.0 2.0 4.0 10.0 3.0 3.0 2.0 10.0 6.0 5.0 10.0 0.0 6.0 4.0 4.0 4.0 10.0 0.0 2.0 9.0 2.0 1.0 2.0 1.0 7.0 1.0 1.0 2.0 0.0 7.0 8.0 9.0 7.0 4.0 3.0 8.0 6.0 7.0 4.0 10.0 1.0 1.0 7.0 8.0 0.0 3.0 2.0 7.0 8.0 3.0 10.0 3.0 2.0 
3.0 5.0 1.0 7.0 6.0 3.0 5.0 10.0 10.0 10.0 0.0 10.0 -449.0 10.0 4.0 5.0 4.0 8.0 7.0 7.0 4.0 10.0 0.0 6.0 6.0 10.0 9.0 6.0 0.0 4.0 3.0 4.0 1.0 3.0 3.0 0.0 0.0 1.0 9.0 1.0 3.0 4.0 0.0 8.0 3.0 9.0 4.0 5.0 7.0 6.0 10.0 1.0 3.0 0.0 2.0 1.0 7.0 9.0 2.0 0.0 0.0 9.0 6.0 9.0 0.0 9.0 9.0 3.0 4.0 1.0 8.0 8.0 3.0 8.0 3.0 9.0 2.0 7.0 0.0 1.0 4.0 5.0 0.0 8.0 6.0 8.0 3.0 1.0 9.0 4.0 2.0 2.0 5.0 1.0 4.0 3.0 6.0 
7.0 10.0 1.0 1.0 6.0 10.0 4.0 0.0 9.0 8.0 5.0 6.0 10.0 -487.0 4.0 5.0 2.0 7.0 7.0 4.0 10.0 1.0 0.0 1.0 9.0 10.0 4.0 6.0 8.0 10.0 10.0 4.0 3.0 1.0 1.0 1.0 1.0 6.0 2.0 2.0 9.0 4.0 0.0 0.0 5.0 0.0 8.0 1.0 1.0 10.0 2.0 6.0 7.0 5.0 4.0 7.0 10.0 1.0 7.0 0.0 3.0 1.0 10.0 0.0 9.0 8.0 1.0 4.0 8.0 5.0 2.0 6.0 5.0 6.0 6.0 10.0 8.0 9.0 10.0 4.0 0.0 10.0 2.0 9.0 2.0 5.0 1.0 5.0 4.0 3.0 4.0 5.0 7.0 9.0 9.0 5.0 9.0 
2.0 6.0 5.0 2.0 10.0 8.0 10.0 2.0 6.0 7.0 5.0 10.0 4.0 4.0 -479.0 6.0 7.0 7.0 7.0 9.0 6.0 5.0 8.0 0.0 7.0 9.0 3.0 10.0 3.0 3.0 10.0 2.0 7.0 1.0 8.0 6.0 8.0 0.0 4.0 7.0 1.0 10.0 4.0 5.0 5.0 2.0 1.0 3.0 6.0 5.0 6.0 6.0 7.0 2.0 6.0 3.0 8.0 2.0 10.0 3.0 5.0 2.0 7.0 7.0 6.0 0.0 6.0 2.0 8.0 9.0 2.0 9.0 6.0 0.0 6.0 3.0 5.0 0.0 2.0 3.0 6.0 5.0 1.0 8.0 7.0 2.0 0.0 2.0 0.0 4.0 4.0 4.0 8.0 5.0 4.0 9.0 3.0 
7.0 10.0 10.0 4.0 2.0 2.0 8.0 0.0 5.0 9.0 6.0 1.0 5.0 5.0 6.0 -477.0 3.0 7.0 5.0 6.0 0.0 7.0 1.0 10.0 4.0 2.0 9.0 5.0 5.0 4.0 7.0 1.0 4.0 9.0 9.0 10.0 3.0 10.0 4.0 5.0 1.0 8.0 4.0 6.0 10.0 4.0 1.0 1.0 4.0 4.0 10.0 8.0 7.0 5.0 8.0 2.0 10.0 4.0 4.0 3.0 0.0 7.0 8.0 3.0 8.0 9.0 3.0 1.0 2.0 4.0 6.0 1.0 5.0 9.0 1.0 4.0 0.0 10.0 0.0 2.0 7.0 6.0 8.0 1.0 2.0 4.0 3.0 0.0 8.0 5.0 7.0 9.0 0.0 0.0 1.0 9.0 10.0 
2.0 2.0 7.0 10.0 5.0 7.0 10.0 8.0 0.0 4.0 2.0 8.0 4.0 2.0 7.0 3.0 -509.0 5.0 3.0 10.0 1.0 9.0 8.0 3.0 0.0 9.0 7.0 6.0 4.0 5.0 5.0 4.0 9.0 5.0 9.0 9.0 8.0 8.0 3.0 5.0 0.0 0.0 5.0 8.0 5.0 3.0 0.0 3.0 5.0 1.0 4.0 3.0 9.0 6.0 3.0 1.0 2.0 6.0 2.0 5.0 9.0 0.0 8.0 10.0 8.0 10.0 8.0 10.0 1.0 1.0 10.0 8.0 2.0 7.0 8.0 10.0 0.0 10.0 2.0 10.0 6.0 4.0 5.0 2.0 0.0 9.0 9.0 7.0 4.0 2.0 0.0 9.0 10.0 1.0 5.0 10.0 7.0 
9.0 9.0 8.0 3.0 0.0 1.0 7.0 5.0 7.0 0.0 2.0 8.0 8.0 7.0 7.0 7.0 5.0 -473.0 10.0 8.0 7.0 4.0 8.0 4.0 10.0 7.0 2.0 6.0 9.0 8.0 10.0 1.0 5.0 0.0 3.0 9.0 3.0 6.0 8.0 7.0 6.0 8.0 3.0 0.0 1.0 4.0 3.0 10.0 5.0 1.0 7.0 10.0 2.0 2.0 1.0 1.0 4.0 2.0 2.0 5.0 3.0 2.0 7.0 1.0 10.0 3.0 0.0 1.0 9.0 5.0 1.0 10.0 10.0 8.0 6.0 0.0 3.0 4.0 1.0 8.0 7.0 3.0 3.0 5.0 8.0 9.0 3.0 9.0 1.0 3.0 3.0 0.0 4.0 4.0 5.0 4.0 5.0 
1.0 1.0 8.0 10.0 0.0 7.0 8.0 6.0 5.0 10.0 0.0 2.0 7.0 7.0 7.0 5.0 3.0 10.0 -527.0 5.0 2.0 4.0 10.0 4.0 9.0 9.0 4.0 9.0 8.0 2.0 8.0 7.0 9.0 9.0 7.0 0.0 8.0 0.0 8.0 2.0 4.0 7.0 2.0 5.0 6.0 10.0 8.0 8.0 8.0 3.0 6.0 8.0 4.0 1.0 9.0 1.0 6.0 7.0 2.0 2.0 7.0 5.0 2.0 2.0 7.0 4.0 5.0 3.0 1.0 10.0 3.0 3.0 1.0 3.0 3.0 10.0 6.0 8.0 5.0 4.0 4.0 8.0 10.0 2.0 5.0 7.0 2.0 5.0 10.0 10.0 5.0 6.0 10.0 4.0 1.0 9.0 9.0 
2.0 9.0 7.0 6.0 8.0 5.0 10.0 4.0 3.0 10.0 5.0 4.0 7.0 4.0 9.0 6.0 10.0 8.0 5.0 -543.0 9.0 0.0 6.0 9.0 5.0 9.0 1.0 10.0 6.0 3.0 6.0 10.0 2.0 0.0 8.0 1.0 7.0 3.0 3.0 6.0 5.0 6.0 2.0 10.0 5.0 0.0 10.0 5.0 10.0 6.0 0.0 2.0 3.0 9.0 4.0 7.0 10.0 10.0 9.0 3.0 0.0 3.0 7.0 10.0 7.0 8.0 4.0 7.0 8.0 4.0 7.0 6.0 5.0 6.0 8.0 10.0 1.0 0.0 8.0 4.0 8.0 7.0 2.0 1.0 4.0 6.0 1.0 5.0 7.0 0.0 4.0 1.0 10.0 9.0 10.0 8.0 5.0 
1.0 3.0 4.0 2.0 2.0 10.0 4.0 5.0 1.0 3.0 2.0 6.0 4.0 10.0 6.0 0.0 1.0 7.0 2.0 9.0 -494.0 3.0 10.0 3.0 2.0 0.0 3.0 3.0 3.0 10.0 5.0 0.0 9.0 5.0 5.0 9.0 5.0 6.0 1.0 10.0 4.0 8.0 9.0 5.0 4.0 10.0 0.0 2.0 4.0 4.0 6.0 0.0 9.0 7.0 10.0 8.0 8.0 6.0 1.0 5.0 10.0 3.0 9.0 5.0 10.0 8.0 4.0 0.0 2.0 1.0 3.0 4.0 3.0 6.0 8.0 7.0 6.0 10.0 9.0 1.0 1.0 8.0 8.0 9.0 10.0 1.0 1.0 5.0 6.0 8.0 6.0 8.0 3.0 9.0 10.0 5.0 3.0 
8.0 1.0 5.0 7.0 3.0 3.0 0.0 4.0 9.0 2.0 0.0 2.0 10.0 1.0 5.0 7.0 9.0 4.0 4.0 0.0 3.0 -452.0 4.0 0.0 7.0 2.0 4.0 2.0 7.0 3.0 6.0 10.0 6.0 7.0 9.0 2.0 1.0 5.0 0.0 1.0 6.0 5.0 5.0 0.0 10.0 0.0 9.0 9.0 7.0 9.0 7.0 4.0 8.0 1.0 8.0 10.0 10.0 4.0 6.0 5.0 10.0 8.0 9.0 0.0 3.0 6.0 7.0 7.0 0.0 8.0 2.0 1.0 5.0 5.0 10.0 0.0 0.0 2.0 7.0 4.0 2.0 7.0 1.0 8.0 9.0 8.0 5.0 4.0 8.0 0.0 2.0 3.0 2.0 4.0 1.0 5.0 3.0 
0.0 2.0 2.0 2.0 4.0 7.0 10.0 6.0 4.0 2.0 8.0 7.0 0.0 0.0 8.0 1.0 8.0 8.0 10.0 6.0 10.0 4.0 -487.0 6.0 3.0 6.0 7.0 3.0 10.0 3.0 2.0 7.0 7.0 2.0 2.0 8.0 10.0 2.0 3.0 3.0 9.0 5.0 10.0 2.0 4.0 9.0 7.0 4.0 4.0 0.0 3.0 5.0 6.0 3.0 7.0 10.0 1.0 2.0 6.0 4.0 9.0 9.0 6.0 4.0 3.0 10.0 8.0 2.0 8.0 2.0 0.0 10.0 3.0 8.0 5.0 0.0 10.0 6.0 7.0 3.0 2.0 8.0 2.0 7.0 7.0 8.0 4.0 8.0 3.0 1.0 3.0 8.0 2.0 10.0 6.0 0.0 1.0 
3.0 5.0 7.0 2.0 9.0 3.0 0.0 7.0 5.0 10.0 10.0 3.0 6.0 1.0 0.0 10.0 3.0 4.0 4.0 9.0 3.0 0.0 6.0 -466.0 6.0 6.0 9.0 1.0 6.0 9.0 2.0 7.0 8.0 7.0 6.0 1.0 5.0 0.0 4.0 8.0 0.0 5.0 7.0 9.0 7.0 1.0 6.0 0.0 1.0 10.0 8.0 7.0 2.0 7.0 7.0 0.0 4.0 10.0 2.0 9.0 3.0 1.0 2.0 0.0 10.0 0.0 3.0 4.0 4.0 9.0 4.0 9.0 1.0 10.0 0.0 0.0 10.0 4.0 5.0 10.0 6.0 1.0 5.0 9.0 10.0 0.0 4.0 6.0 9.0 2.0 0.0 4.0 2.0 0.0 10.0 5.0 7.0 
9.0 10.0 6.0 1.0 6.0 10.0 9.0 8.0 3.0 2.0 2.0 2.0 6.0 9.0 7.0 4.0 0.0 10.0 9.0 5.0 2.0 7.0 3.0 6.0 -506.0 5.0 4.0 1.0 10.0 8.0 1.0 10.0 0.0 1.0 5.0 6.0 7.0 2.0 7.0 9.0 5.0 8.0 7.0 6.0 0.0 5.0 6.0 4.0 6.0 2.0 6.0 9.0 1.0 4.0 0.0 4.0 7.0 6.0 10.0 2.0 2.0 9.0 0.0 7.0 9.0 9.0 9.0 2.0 6.0 2.0 9.0 7.0 3.0 6.0 3.0 4.0 4.0 8.0 0.0 8.0 5.0 8.0 5.0 9.0 1.0 10.0 0.0 6.0 6.0 4.0 4.0 10.0 2.0 1.0 5.0 7.0 6.0 
9.0 3.0 7.0 4.0 6.0 10.0 9.0 7.0 0.0 1.0 0.0 1.0 10.0 10.0 9.0 2.0 9.0 7.0 9.0 9.0 0.0 2.0 6.0 6.0 5.0 -457.0 10.0 3.0 1.0 8.0 2.0 4.0 5.0 4.0 4.0 9.0 8.0 0.0 9.0 3.0 10.0 6.0 0.0 0.0 0.0 1.0 4.0 9.0 0.0 7.0 5.0 5.0 6.0 5.0 9.0 0.0 5.0 7.0 8.0 9.0 1.0 1.0 10.0 7.0 7.0 4.0 5.0 1.0 4.0 1.0 3.0 8.0 2.0 3.0 2.0 4.0 10.0 0.0 10.0 5.0 9.0 5.0 2.0 3.0 6.0 1.0 0.0 7.0 0.0 1.0 9.0 6.0 3.0 5.0 2.0 1.0 2.0 
7.0 2.0 6.0 5.0 4.0 2.0 7.0 6.0 4.0 2.0 1.0 4.0 9.0 4.0 3.0 9.0 7.0 2.0 4.0 1.0 3.0 4.0 7.0 9.0 4.0 10.0 -504.0 3.0 2.0 8.0 9.0 9.0 9.0 3.0 1.0 8.0 1.0 5.0 4.0 7.0 4.0 7.0 1.0 7.0 4.0 6.0 1.0 7.0 3.0 2.0 1.0 9.0 10.0 9.0 3.0 9.0 5.0 10.0 3.0 8.0 8.0 7.0 4.0 10.0 0.0 3.0 1.0 1.0 9.0 7.0 1.0 1.0 1.0 9.0 8.0 7.0 10.0 4.0 3.0 5.0 9.0 2.0 7.0 7.0 7.0 3.0 5.0 8.0 10.0 9.0 5.0 10.0 4.0 3.0 2.0 9.0 1.0 
2.0 4.0 8.0 1.0 8.0 0.0 0.0 6.0 2.0 9.0 8.0 8.0 6.0 6.0 10.0 5.0 6.0 6.0 9.0 10.0 3.0 2.0 3.0 1.0 1.0 3.0 3.0 -493.0 4.0 0.0 6.0 9.0 9.0 3.0 5.0 1.0 6.0 1.0 10.0 4.0 4.0 4.0 4.0 10.0 6.0 6.0 10.0 9.0 6.0 1.0 1.0 5.0 4.0 4.0 7.0 10.0 5.0 6.0 3.0 7.0 8.0 3.0 2.0 8.0 10.0 3.0 4.0 6.0 8.0 2.0 5.0 2.0 10.0 6.0 0.0 3.0 6.0 1.0 10.0 7.0 10.0 3.0 8.0 3.0 6.0 0.0 9.0 10.0 2.0 6.0 7.0 3.0 4.0 8.0 4.0 2.0 4.0 
1.0 1.0 8.0 0.0 9.0 8.0 5.0 5.0 1.0 5.0 0.0 9.0 0.0 8.0 3.0 5.0 4.0 9.0 8.0 6.0 3.0 7.0 10.0 6.0 10.0 1.0 2.0 4.0 -478.0 5.0 7.0 2.0 10.0 5.0 9.0 5.0 9.0 5.0 6.0 2.0 10.0 0.0 7.0 4.0 3.0 3.0 8.0 4.0 0.0 4.0 9.0 6.0 4.0 5.0 1.0 8.0 8.0 9.0 1.0 6.0 10.0 10.0 4.0 10.0 3.0 3.0 4.0 0.0 0.0 10.0 0.0 2.0 10.0 3.0 3.0 2.0 2.0 1.0 3.0 2.0 0.0 10.0 4.0 10.0 1.0 1.0 9.0 7.0 0.0 10.0 5.0 9.0 10.0 1.0 4.0 3.0 9.0 
3.0 10.0 2.0 6.0 0.0 8.0 3.0 1.0 9.0 6.0 7.0 9.0 4.0 10.0 3.0 4.0 5.0 8.0 2.0 3.0 10.0 3.0 3.0 9.0 8.0 8.0 8.0 0.0 5.0 -476.0 2.0 1.0 3.0 5.0 7.0 5.0 10.0 1.0 0.0 2.0 8.0 5.0 6.0 3.0 4.0 5.0 2.0 2.0 9.0 3.0 4.0 8.0 2.0 2.0 6.0 0.0 0.0 9.0 7.0 10.0 4.0 7.0 6.0 2.0 5.0 3.0 3.0 5.0 6.0 7.0 10.0 0.0 0.0 4.0 3.0 5.0 5.0 9.0 7.0 8.0 5.0 10.0 6.0 10.0 0.0 4.0 4.0 0.0 9.0 9.0 8.0 2.0 8.0 0.0 8.0 3.0 3.0 
4.0 8.0 3.0 9.0 8.0 1.0 7.0 10.0 4.0 10.0 4.0 8.0 3.0 10.0 10.0 7.0 5.0 10.0 8.0 6.0 5.0 6.0 2.0 2.0 1.0 2.0 9.0 6.0 7.0 2.0 -495.0 8.0 2.0 2.0 1.0 9.0 6.0 9.0 8.0 3.0 10.0 10.0 0.0 4.0 3.0 10.0 8.0 0.0 7.0 5.0 6.0 10.0 6.0 3.0 10.0 6.0 9.0 8.0 2.0 5.0 3.0 2.0 4.0 0.0 3.0 8.0 3.0 10.0 6.0 0.0 6.0 7.0 5.0 7.0 1.0 4.0 8.0 1.0 5.0 1.0 1.0 3.0 7.0 0.0 3.0 8.0 6.0 9.0 5.0 10.0 1.0 0.0 5.0 3.0 0.0 2.0 1.0 
7.0 10.0 9.0 10.0 3.0 3.0 0.0 2.0 1.0 8.0 8.0 0.0 4.0 4.0 2.0 1.0 4.0 1.0 7.0 10.0 0.0 10.0 7.0 7.0 10.0 4.0 9.0 9.0 2.0 1.0 8.0 -493.0 0.0 0.0 3.0 3.0 9.0 10.0 8.0 4.0 1.0 5.0 6.0 2.0 8.0 10.0 0.0 4.0 9.0 7.0 5.0 7.0 3.0 5.0 5.0 3.0 10.0 6.0 6.0 2.0 6.0 1.0 2.0 3.0 2.0 5.0 3.0 7.0 6.0 8.0 3.0 7.0 9.0 4.0 8.0 7.0 8.0 4.0 3.0 2.0 2.0 10.0 0.0 4.0 1.0 2.0 7.0 7.0 4.0 10.0 6.0 6.0 7.0 8.0 2.0 9.0 8.0 
5.0 6.0 4.0 7.0 8.0 7.0 1.0 0.0 3.0 6.0 7.0 10.0 1.0 3.0 7.0 4.0 9.0 5.0 9.0 2.0 9.0 6.0 7.0 8.0 0.0 5.0 9.0 9.0 10.0 3.0 2.0 0.0 -488.0 1.0 10.0 4.0 8.0 2.0 8.0 10.0 0.0 9.0 7.0 2.0 4.0 0.0 1.0 4.0 0.0 0.0 6.0 2.0 8.0 8.0 10.0 7.0 3.0 0.0 6.0 10.0 9.0 9.0 9.0 7.0 6.0 5.0 1.0 3.0 0.0 7.0 3.0 7.0 10.0 1.0 8.0 1.0 6.0 0.0 5.0 5.0 9.0 8.0 0.0 9.0 10.0 1.0 8.0 1.0 1.0 1.0 6.0 9.0 1.0 8.0 1.0 5.0 6.0 
2.0 10.0 0.0 2.0 7.0 4.0 0.0 5.0 5.0 0.0 6.0 5.0 3.0 1.0 1.0 9.0 5.0 0.0 9.0 0.0 5.0 7.0 2.0 7.0 1.0 4.0 3.0 3.0 5.0 5.0 2.0 0.0 1.0 -435.0 8.0 3.0 7.0 8.0 0.0 2.0 8.0 8.0 0.0 5.0 0.0 3.0 9.0 2.0 9.0 7.0 1.0 10.0 1.0 2.0 8.0 5.0 10.0 8.0 3.0 2.0 0.0 2.0 6.0 2.0 0.0 9.0 7.0 6.0 8.0 4.0 0.0 1.0 6.0 7.0 9.0 5.0 5.0 8.0 1.0 6.0 9.0 8.0 1.0 9.0 2.0 5.0 6.0 10.0 8.0 7.0 3.0 3.0 10.0 4.0 3.0 6.0 1.0 
6.0 3.0 1.0 10.0 7.0 0.0 2.0 1.0 10.0 1.0 1.0 3.0 3.0 1.0 8.0 9.0 9.0 3.0 7.0 8.0 5.0 9.0 2.0 6.0 5.0 4.0 1.0 5.0 9.0 7.0 1.0 3.0 10.0 8.0 -480.0 2.0 8.0 1.0 10.0 1.0 6.0 7.0 7.0 6.0 10.0 7.0 3.0 3.0 2.0 8.0 7.0 6.0 5.0 6.0 2.0 9.0 1.0 6.0 7.0 2.0 0.0 9.0 5.0 10.0 0.0 2.0 6.0 5.0 1.0 9.0 1.0 1.0 3.0 0.0 3.0 1.0 10.0 6.0 1.0 3.0 9.0 6.0 6.0 9.0 8.0 10.0 5.0 8.0 8.0 9.0 1.0 5.0 4.0 1.0 5.0 6.0 4.0 
8.0 2.0 6.0 1.0 8.0 9.0 1.0 9.0 10.0 8.0 6.0 8.0 0.0 1.0 6.0 10.0 9.0 9.0 0.0 1.0 9.0 2.0 8.0 1.0 6.0 9.0 8.0 1.0 5.0 5.0 9.0 3.0 4.0 3.0 2.0 -506.0 1.0 6.0 6.0 9.0 1.0 8.0 4.0 10.0 3.0 7.0 7.0 9.0 3.0 4.0 10.0 1.0 5.0 4.0 8.0 3.0 9.0 1.0 3.0 2.0 9.0 9.0 0.0 0.0 9.0 1.0 10.0 4.0 1.0 5.0 4.0 1.0 7.0 10.0 5.0 0.0 8.0 7.0 6.0 7.0 8.0 3.0 3.0 5.0 8.0 9.0 9.0 3.0 7.0 7.0 6.0 2.0 4.0 0.0 5.0 3.0 10.0 
9.0 9.0 6.0 6.0 0.0 8.0 2.0 7.0 9.0 10.0 4.0 6.0 0.0 1.0 8.0 3.0 8.0 3.0 8.0 7.0 5.0 1.0 10.0 5.0 7.0 8.0 1.0 6.0 9.0 10.0 6.0 9.0 8.0 7.0 8.0 1.0 -536.0 6.0 10.0 9.0 10.0 9.0 1.0 5.0 3.0 1.0 4.0 10.0 6.0 7.0 2.0 5.0 0.0 4.0 10.0 8.0 10.0 9.0 1.0 10.0 4.0 10.0 0.0 8.0 6.0 1.0 4.0 0.0 1.0 1.0 8.0 1.0 8.0 5.0 2.0 10.0 9.0 1.0 0.0 7.0 5.0 5.0 0.0 9.0 3.0 8.0 4.0 7.0 9.0 4.0 6.0 6.0 10.0 1.0 6.0 7.0 5.0 
2.0 7.0 6.0 9.0 5.0 8.0 3.0 6.0 10.0 5.0 4.0 8.0 1.0 6.0 0.0 10.0 8.0 6.0 0.0 3.0 6.0 5.0 2.0 0.0 2.0 0.0 5.0 1.0 5.0 1.0 9.0 10.0 2.0 8.0 1.0 6.0 6.0 -478.0 6.0 1.0 4.0 10.0 2.0 7.0 2.0 8.0 6.0 6.0 10.0 2.0 5.0 9.0 1.0 8.0 9.0 8.0 2.0 5.0 8.0 2.0 4.0 8.0 9.0 4.0 5.0 2.0 3.0 1.0 4.0 0.0 7.0 2.0 0.0 1.0 8.0 10.0 3.0 1.0 0.0 2.0 8.0 10.0 5.0 4.0 10.0 3.0 6.0 6.0 7.0 0.0 9.0 9.0 5.0 7.0 10.0 0.0 8.0 
0.0 2.0 8.0 7.0 8.0 8.0 6.0 3.0 8.0 9.0 10.0 6.0 9.0 2.0 4.0 4.0 3.0 8.0 8.0 3.0 1.0 0.0 3.0 4.0 7.0 9.0 4.0 10.0 6.0 0.0 8.0 8.0 8.0 0.0 10.0 6.0 10.0 6.0 -476.0 1.0 5.0 2.0 0.0 10.0 8.0 2.0 2.0 6.0 6.0 2.0 2.0 4.0 1.0 9.0 7.0 0.0 7.0 5.0 0.0 9.0 4.0 6.0 7.0 4.0 3.0 1.0 6.0 1.0 5.0 5.0 0.0 9.0 2.0 1.0 9.0 3.0 8.0 9.0 4.0 6.0 5.0 2.0 8.0 10.0 9.0 7.0 2.0 2.0 0.0 0.0 1.0 9.0 4.0 5.0 8.0 3.0 4.0 
10.0 1.0 3.0 0.0 9.0 6.0 2.0 8.0 2.0 4.0 10.0 6.0 1.0 2.0 7.0 5.0 5.0 7.0 2.0 6.0 10.0 1.0 3.0 8.0 9.0 3.0 7.0 4.0 2.0 2.0 3.0 4.0 10.0 2.0 1.0 9.0 9.0 1.0 1.0 -446.0 1.0 4.0 0.0 0.0 3.0 4.0 5.0 0.0 8.0 9.0 3.0 2.0 6.0 3.0 9.0 7.0 9.0 0.0 5.0 9.0 9.0 6.0 6.0 1.0 10.0 0.0 9.0 7.0 10.0 6.0 2.0 2.0 8.0 5.0 4.0 2.0 7.0 10.0 3.0 1.0 9.0 0.0 6.0 0.0 8.0 4.0 1.0 2.0 0.0 7.0 10.0 3.0 5.0 0.0 3.0 5.0 3.0 
3.0 2.0 2.0 6.0 4.0 8.0 8.0 0.0 6.0 3.0 3.0 6.0 3.0 9.0 1.0 1.0 0.0 6.0 4.0 5.0 4.0 6.0 9.0 0.0 5.0 10.0 4.0 4.0 10.0 8.0 10.0 1.0 0.0 8.0 6.0 1.0 10.0 4.0 5.0 1.0 -461.0 5.0 4.0 8.0 0.0 0.0 6.0 5.0 9.0 8.0 1.0 9.0 8.0 8.0 1.0 9.0 2.0 6.0 0.0 7.0 10.0 5.0 10.0 2.0 1.0 7.0 9.0 5.0 8.0 6.0 5.0 3.0 7.0 9.0 1.0 3.0 4.0 6.0 0.0 1.0 2.0 2.0 6.0 3.0 4.0 4.0 8.0 2.0 6.0 3.0 9.0 7.0 6.0 8.0 4.0 1.0 2.0 
7.0 6.0 9.0 5.0 6.0 2.0 1.0 6.0 4.0 2.0 4.0 6.0 4.0 4.0 10.0 8.0 0.0 8.0 7.0 6.0 8.0 5.0 5.0 5.0 8.0 6.0 7.0 4.0 0.0 5.0 10.0 5.0 9.0 8.0 7.0 8.0 9.0 10.0 2.0 4.0 5.0 -463.0 2.0 6.0 2.0 6.0 4.0 3.0 1.0 5.0 9.0 0.0 0.0 8.0 2.0 5.0 0.0 4.0 3.0 10.0 1.0 1.0 3.0 10.0 2.0 3.0 8.0 0.0 4.0 3.0 5.0 5.0 7.0 5.0 1.0 6.0 7.0 9.0 3.0 5.0 1.0 9.0 1.0 7.0 4.0 0.0 0.0 5.0 10.0 10.0 3.0 0.0 4.0 5.0 0.0 8.0 3.0 
8.0 7.0 0.0 5.0 2.0 6.0 6.0 3.0 5.0 2.0 8.0 5.0 0.0 0.0 4.0 4.0 5.0 3.0 2.0 2.0 9.0 5.0 10.0 7.0 7.0 0.0 1.0 4.0 7.0 6.0 0.0 6.0 7.0 0.0 7.0 4.0 1.0 2.0 0.0 0.0 4.0 2.0 -430.0 0.0 3.0 10.0 9.0 8.0 3.0 6.0 3.0 2.0 8.0 2.0 8.0 8.0 3.0 1.0 2.0 0.0 4.0 5.0 5.0 6.0 9.0 6.0 10.0 2.0 7.0 10.0 1.0 6.0 0.0 7.0 0.0 0.0 0.0 9.0 4.0 8.0 7.0 7.0 0.0 3.0 8.0 10.0 5.0 2.0 9.0 3.0 7.0 7.0 0.0 9.0 4.0 8.0 0.0 
7.0 5.0 5.0 2.0 4.0 0.0 2.0 5.0 3.0 1.0 10.0 3.0 8.0 0.0 5.0 6.0 8.0 0.0 5.0 10.0 5.0 0.0 2.0 9.0 6.0 0.0 7.0 10.0 4.0 3.0 4.0 2.0 2.0 5.0 6.0 10.0 5.0 7.0 10.0 0.0 8.0 6.0 0.0 -444.0 5.0 7.0 6.0 2.0 4.0 4.0 3.0 6.0 2.0 4.0 10.0 5.0 1.0 1.0 7.0 1.0 8.0 4.0 7.0 6.0 1.0 9.0 8.0 0.0 7.0 7.0 8.0 9.0 3.0 5.0 8.0 2.0 2.0 4.0 5.0 5.0 7.0 6.0 6.0 2.0 6.0 4.0 2.0 2.0 6.0 10.0 0.0 0.0 3.0 6.0 5.0 0.0 3.0 
2.0 9.0 7.0 9.0 0.0 3.0 6.0 4.0 5.0 6.0 4.0 0.0 3.0 5.0 5.0 10.0 5.0 1.0 6.0 5.0 4.0 10.0 4.0 7.0 0.0 0.0 4.0 6.0 3.0 4.0 3.0 8.0 4.0 0.0 10.0 3.0 3.0 2.0 8.0 3.0 0.0 2.0 3.0 5.0 -461.0 3.0 1.0 9.0 8.0 10.0 1.0 8.0 9.0 0.0 5.0 2.0 0.0 10.0 10.0 9.0 0.0 2.0 5.0 9.0 10.0 2.0 8.0 4.0 7.0 10.0 1.0 6.0 0.0 9.0 10.0 7.0 2.0 7.0 10.0 6.0 0.0 5.0 5.0 1.0 2.0 0.0 5.0 6.0 7.0 0.0 7.0 4.0 3.0 8.0 2.0 9.0 6.0 
5.0 1.0 6.0 2.0 10.0 9.0 3.0 5.0 8.0 8.0 4.0 2.0 9.0 0.0 2.0 4.0 3.0 4.0 10.0 0.0 10.0 0.0 9.0 1.0 5.0 1.0 6.0 6.0 3.0 5.0 10.0 10.0 0.0 3.0 7.0 7.0 1.0 8.0 2.0 4.0 0.0 6.0 10.0 7.0 3.0 -479.0 6.0 8.0 0.0 5.0 1.0 1.0 10.0 2.0 9.0 8.0 0.0 10.0 4.0 10.0 7.0 2.0 7.0 5.0 4.0 3.0 3.0 8.0 8.0 5.0 2.0 7.0 1.0 5.0 4.0 9.0 8.0 8.0 5.0 6.0 2.0 1.0 3.0 6.0 9.0 5.0 6.0 0.0 6.0 7.0 3.0 2.0 6.0 5.0 4.0 4.0 10.0 
8.0 6.0 10.0 9.0 7.0 1.0 10.0 7.0 6.0 2.0 6.0 4.0 4.0 8.0 1.0 1.0 0.0 3.0 8.0 10.0 0.0 9.0 7.0 6.0 6.0 4.0 1.0 10.0 8.0 2.0 8.0 0.0 1.0 9.0 3.0 7.0 4.0 6.0 2.0 5.0 6.0 4.0 9.0 6.0 1.0 6.0 -465.0 5.0 0.0 9.0 10.0 4.0 0.0 5.0 9.0 5.0 10.0 8.0 7.0 2.0 10.0 8.0 1.0 5.0 2.0 1.0 3.0 2.0 0.0 5.0 9.0 0.0 2.0 4.0 0.0 2.0 5.0 2.0 8.0 10.0 1.0 8.0 2.0 8.0 4.0 3.0 7.0 2.0 0.0 7.0 4.0 4.0 1.0 8.0 4.0 5.0 3.0 
3.0 8.0 10.0 2.0 1.0 3.0 9.0 9.0 2.0 1.0 0.0 10.0 5.0 1.0 3.0 1.0 3.0 10.0 8.0 5.0 2.0 9.0 4.0 0.0 4.0 9.0 7.0 9.0 4.0 2.0 0.0 4.0 4.0 2.0 3.0 9.0 10.0 6.0 6.0 0.0 5.0 3.0 8.0 2.0 9.0 8.0 5.0 -470.0 4.0 10.0 8.0 0.0 1.0 8.0 7.0 2.0 8.0 6.0 9.0 0.0 2.0 8.0 5.0 6.0 8.0 10.0 0.0 10.0 2.0 6.0 0.0 6.0 5.0 10.0 3.0 0.0 0.0 0.0 3.0 8.0 5.0 7.0 1.0 9.0 7.0 0.0 3.0 5.0 8.0 3.0 2.0 6.0 2.0 8.0 4.0 8.0 9.0 
10.0 7.0 10.0 10.0 2.0 2.0 1.0 6.0 1.0 0.0 2.0 3.0 7.0 1.0 6.0 4.0 5.0 5.0 8.0 10.0 4.0 7.0 4.0 1.0 6.0 0.0 3.0 6.0 0.0 9.0 7.0 9.0 0.0 9.0 2.0 3.0 6.0 10.0 6.0 8.0 9.0 1.0 3.0 4.0 8.0 0.0 0.0 4.0 -486.0 2.0 2.0 2.0 7.0 2.0 2.0 8.0 10.0 7.0 6.0 3.0 1.0 4.0 6.0 4.0 5.0 3.0 4.0 8.0 1.0 9.0 10.0 4.0 10.0 4.0 4.0 10.0 2.0 6.0 2.0 9.0 1.0 10.0 10.0 4.0 8.0 5.0 5.0 4.0 7.0 6.0 3.0 2.0 10.0 10.0 7.0 5.0 3.0 
10.0 3.0 1.0 2.0 10.0 3.0 1.0 5.0 3.0 10.0 6.0 3.0 6.0 10.0 5.0 4.0 1.0 1.0 3.0 6.0 4.0 9.0 0.0 10.0 2.0 7.0 2.0 1.0 4.0 3.0 5.0 7.0 0.0 7.0 8.0 4.0 7.0 2.0 2.0 9.0 8.0 5.0 6.0 4.0 10.0 5.0 9.0 10.0 2.0 -499.0 3.0 5.0 6.0 6.0 5.0 1.0 4.0 2.0 0.0 1.0 6.0 7.0 3.0 9.0 4.0 1.0 1.0 9.0 6.0 5.0 10.0 6.0 2.0 10.0 10.0 6.0 6.0 7.0 9.0 6.0 8.0 5.0 1.0 10.0 5.0 6.0 9.0 1.0 3.0 10.0 9.0 5.0 6.0 6.0 0.0 9.0 5.0 
2.0 4.0 7.0 10.0 7.0 0.0 3.0 9.0 0.0 10.0 0.0 2.0 10.0 2.0 6.0 10.0 4.0 7.0 6.0 0.0 6.0 7.0 3.0 8.0 6.0 5.0 1.0 1.0 9.0 4.0 6.0 5.0 6.0 1.0 7.0 10.0 2.0 5.0 2.0 3.0 1.0 9.0 3.0 3.0 1.0 1.0 10.0 8.0 2.0 3.0 -446.0 0.0 6.0 8.0 4.0 8.0 2.0 3.0 0.0 5.0 3.0 10.0 3.0 0.0 4.0 4.0 5.0 4.0 9.0 2.0 1.0 4.0 3.0 1.0 1.0 3.0 4.0 5.0 5.0 4.0 8.0 4.0 6.0 9.0 9.0 10.0 4.0 5.0 10.0 0.0 2.0 5.0 10.0 3.0 2.0 5.0 6.0 
6.0 5.0 7.0 10.0 2.0 0.0 7.0 3.0 10.0 9.0 4.0 10.0 1.0 6.0 6.0 8.0 3.0 10.0 8.0 2.0 0.0 4.0 5.0 7.0 9.0 5.0 9.0 5.0 6.0 8.0 10.0 7.0 2.0 10.0 6.0 1.0 5.0 9.0 4.0 2.0 9.0 0.0 2.0 6.0 8.0 1.0 4.0 0.0 2.0 5.0 0.0 -508.0 9.0 7.0 6.0 3.0 10.0 0.0 1.0 3.0 10.0 6.0 4.0 7.0 7.0 1.0 9.0 4.0 5.0 4.0 6.0 1.0 7.0 10.0 8.0 6.0 2.0 5.0 9.0 2.0 5.0 1.0 4.0 8.0 9.0 1.0 8.0 2.0 9.0 6.0 9.0 0.0 2.0 9.0 4.0 1.0 10.0 
7.0 4.0 4.0 7.0 8.0 8.0 2.0 0.0 3.0 6.0 3.0 6.0 3.0 7.0 7.0 7.0 9.0 2.0 4.0 3.0 9.0 8.0 6.0 2.0 1.0 6.0 10.0 4.0 4.0 2.0 6.0 3.0 8.0 1.0 5.0 5.0 0.0 1.0 1.0 6.0 8.0 0.0 8.0 2.0 9.0 10.0 0.0 1.0 7.0 6.0 6.0 9.0 -501.0 5.0 9.0 10.0 3.0 10.0 2.0 6.0 8.0 4.0 0.0 10.0 8.0 6.0 8.0 2.0 5.0 6.0 7.0 1.0 8.0 10.0 3.0 8.0 1.0 9.0 9.0 1.0 9.0 2.0 10.0 5.0 2.0 5.0 3.0 2.0 7.0 4.0 3.0 7.0 7.0 4.0 4.0 5.0 9.0 
5.0 2.0 3.0 2.0 3.0 7.0 7.0 10.0 3.0 4.0 6.0 5.0 0.0 5.0 2.0 5.0 6.0 2.0 1.0 9.0 7.0 1.0 3.0 7.0 4.0 5.0 9.0 4.0 5.0 2.0 3.0 5.0 8.0 2.0 6.0 4.0 4.0 8.0 9.0 3.0 8.0 8.0 2.0 4.0 0.0 2.0 5.0 8.0 2.0 6.0 8.0 7.0 5.0 -466.0 1.0 5.0 4.0 8.0 4.0 3.0 7.0 4.0 1.0 9.0 4.0 5.0 7.0 2.0 6.0 1.0 6.0 7.0 7.0 9.0 3.0 2.0 2.0 7.0 5.0 8.0 8.0 5.0 2.0 4.0 7.0 9.0 2.0 4.0 10.0 7.0 0.0 10.0 0.0 2.0 4.0 4.0 10.0 
0.0 7.0 5.0 10.0 0.0 10.0 8.0 0.0 2.0 7.0 10.0 10.0 2.0 4.0 6.0 8.0 3.0 1.0 9.0 4.0 10.0 8.0 7.0 7.0 0.0 9.0 3.0 7.0 1.0 6.0 10.0 5.0 10.0 8.0 2.0 8.0 10.0 9.0 7.0 9.0 1.0 2.0 8.0 10.0 5.0 9.0 9.0 7.0 2.0 5.0 4.0 6.0 9.0 1.0 -522.0 0.0 6.0 6.0 9.0 0.0 2.0 10.0 7.0 2.0 3.0 8.0 0.0 4.0 0.0 8.0 6.0 4.0 2.0 6.0 6.0 0.0 5.0 10.0 5.0 8.0 0.0 9.0 0.0 10.0 4.0 7.0 1.0 5.0 10.0 2.0 1.0 10.0 1.0 5.0 7.0 10.0 3.0 
6.0 8.0 5.0 1.0 2.0 5.0 0.0 4.0 8.0 4.0 3.0 0.0 1.0 7.0 3.0 2.0 1.0 1.0 1.0 7.0 8.0 10.0 10.0 0.0 4.0 0.0 9.0 10.0 8.0 0.0 6.0 3.0 7.0 5.0 9.0 3.0 8.0 8.0 0.0 7.0 9.0 5.0 8.0 5.0 2.0 8.0 5.0 2.0 8.0 1.0 8.0 3.0 10.0 5.0 0.0 -438.0 9.0 3.0 5.0 0.0 1.0 2.0 3.0 3.0 0.0 1.0 6.0 10.0 4.0 2.0 10.0 5.0 6.0 2.0 9.0 3.0 0.0 10.0 10.0 8.0 4.0 1.0 2.0 5.0 1.0 3.0 3.0 6.0 6.0 5.0 6.0 2.0 0.0 3.0 1.0 8.0 7.0 
1.0 10.0 7.0 9.0 10.0 10.0 10.0 7.0 3.0 3.0 6.0 6.0 7.0 10.0 8.0 10.0 2.0 4.0 6.0 10.0 8.0 10.0 1.0 4.0 7.0 5.0 5.0 5.0 8.0 0.0 9.0 10.0 3.0 10.0 1.0 9.0 10.0 2.0 7.0 9.0 2.0 0.0 3.0 1.0 0.0 0.0 10.0 8.0 10.0 4.0 2.0 10.0 3.0 4.0 6.0 9.0 -513.0 9.0 2.0 9.0 3.0 10.0 8.0 9.0 2.0 3.0 3.0 2.0 4.0 2.0 6.0 2.0 6.0 4.0 5.0 0.0 2.0 6.0 4.0 1.0 6.0 4.0 5.0 3.0 9.0 0.0 2.0 5.0 7.0 3.0 8.0 7.0 4.0 5.0 5.0 4.0 0.0 
3.0 5.0 6.0 3.0 9.0 9.0 10.0 6.0 5.0 5.0 4.0 4.0 9.0 1.0 2.0 4.0 6.0 2.0 7.0 10.0 6.0 4.0 2.0 10.0 6.0 7.0 10.0 6.0 9.0 9.0 8.0 6.0 0.0 8.0 6.0 1.0 9.0 5.0 5.0 0.0 6.0 4.0 1.0 1.0 10.0 10.0 8.0 6.0 7.0 2.0 3.0 0.0 10.0 8.0 6.0 3.0 9.0 -523.0 6.0 9.0 8.0 0.0 8.0 6.0 3.0 3.0 10.0 10.0 0.0 6.0 5.0 8.0 6.0 5.0 1.0 2.0 1.0 1.0 10.0 6.0 3.0 8.0 1.0 5.0 4.0 7.0 9.0 9.0 3.0 5.0 7.0 8.0 5.0 3.0 0.0 2.0 9.0 
9.0 4.0 0.0 1.0 3.0 3.0 4.0 0.0 9.0 7.0 10.0 4.0 2.0 7.0 10.0 4.0 2.0 2.0 2.0 9.0 1.0 6.0 6.0 2.0 10.0 8.0 3.0 3.0 1.0 7.0 2.0 6.0 6.0 3.0 7.0 3.0 1.0 8.0 0.0 5.0 0.0 3.0 2.0 7.0 10.0 4.0 7.0 9.0 6.0 0.0 0.0 1.0 2.0 4.0 9.0 5.0 2.0 6.0 -438.0 0.0 1.0 3.0 0.0 7.0 5.0 2.0 3.0 0.0 0.0 9.0 2.0 9.0 5.0 7.0 8.0 7.0 4.0 2.0 9.0 1.0 9.0 6.0 4.0 3.0 6.0 2.0 3.0 10.0 5.0 8.0 9.0 9.0 10.0 1.0 7.0 5.0 0.0 
3.0 7.0 1.0 8.0 0.0 6.0 2.0 2.0 5.0 6.0 9.0 4.0 0.0 0.0 3.0 3.0 5.0 5.0 2.0 3.0 5.0 5.0 4.0 9.0 2.0 9.0 8.0 7.0 6.0 10.0 5.0 2.0 10.0 2.0 2.0 2.0 10.0 2.0 9.0 9.0 7.0 10.0 0.0 1.0 9.0 10.0 2.0 0.0 3.0 1.0 5.0 3.0 6.0 3.0 0.0 0.0 9.0 9.0 0.0 -440.0 0.0 5.0 0.0 0.0 6.0 8.0 3.0 9.0 8.0 3.0 2.0 1.0 7.0 2.0 7.0 4.0 4.0 5.0 7.0 1.0 10.0 1.0 3.0 1.0 9.0 5.0 0.0 9.0 7.0 1.0 3.0 10.0 8.0 5.0 9.0 0.0 7.0 
9.0 5.0 3.0 8.0 2.0 10.0 8.0 2.0 8.0 2.0 4.0 10.0 0.0 3.0 5.0 0.0 9.0 3.0 7.0 0.0 10.0 10.0 9.0 3.0 2.0 1.0 8.0 8.0 10.0 4.0 3.0 6.0 9.0 0.0 0.0 9.0 4.0 4.0 4.0 9.0 10.0 1.0 4.0 8.0 0.0 7.0 10.0 2.0 1.0 6.0 3.0 10.0 8.0 7.0 2.0 1.0 3.0 8.0 1.0 0.0 -477.0 8.0 0.0 0.0 1.0 3.0 1.0 6.0 8.0 3.0 3.0 8.0 3.0 6.0 6.0 2.0 10.0 3.0 5.0 4.0 9.0 10.0 10.0 7.0 3.0 3.0 1.0 1.0 5.0 6.0 8.0 10.0 9.0 5.0 5.0 1.0 1.0 
7.0 3.0 10.0 3.0 3.0 5.0 6.0 6.0 6.0 4.0 4.0 0.0 9.0 1.0 2.0 7.0 0.0 2.0 5.0 3.0 3.0 8.0 9.0 1.0 9.0 1.0 7.0 3.0 10.0 7.0 2.0 1.0 9.0 2.0 9.0 9.0 10.0 8.0 6.0 6.0 5.0 1.0 5.0 4.0 2.0 2.0 8.0 8.0 4.0 7.0 10.0 6.0 4.0 4.0 10.0 2.0 10.0 0.0 3.0 5.0 8.0 -499.0 7.0 0.0 6.0 1.0 5.0 10.0 1.0 8.0 6.0 4.0 10.0 1.0 10.0 9.0 2.0 0.0 4.0 10.0 4.0 4.0 2.0 2.0 2.0 10.0 3.0 5.0 8.0 9.0 2.0 8.0 9.0 6.0 8.0 0.0 9.0 
9.0 10.0 10.0 5.0 5.0 2.0 5.0 8.0 7.0 9.0 2.0 2.0 6.0 10.0 7.0 8.0 8.0 7.0 2.0 7.0 9.0 9.0 6.0 2.0 0.0 10.0 4.0 2.0 4.0 6.0 4.0 2.0 9.0 6.0 5.0 0.0 0.0 9.0 7.0 6.0 10.0 3.0 5.0 7.0 5.0 7.0 1.0 5.0 6.0 3.0 3.0 4.0 0.0 1.0 7.0 3.0 8.0 8.0 0.0 0.0 0.0 7.0 -490.0 7.0 4.0 3.0 7.0 8.0 9.0 3.0 9.0 1.0 7.0 5.0 8.0 0.0 2.0 2.0 1.0 9.0 10.0 5.0 4.0 3.0 6.0 4.0 6.0 5.0 2.0 2.0 0.0 9.0 7.0 4.0 9.0 2.0 5.0 
5.0 7.0 0.0 5.0 9.0 0.0 4.0 7.0 4.0 9.0 1.0 9.0 9.0 0.0 7.0 3.0 10.0 1.0 2.0 10.0 5.0 0.0 4.0 0.0 7.0 7.0 10.0 8.0 10.0 2.0 0.0 3.0 7.0 2.0 10.0 0.0 8.0 4.0 4.0 1.0 2.0 10.0 6.0 6.0 9.0 5.0 5.0 6.0 4.0 9.0 0.0 7.0 10.0 9.0 2.0 3.0 9.0 6.0 7.0 0.0 0.0 0.0 7.0 -501.0 9.0 9.0 7.0 8.0 0.0 5.0 7.0 5.0 5.0 8.0 7.0 3.0 4.0 8.0 7.0 5.0 3.0 10.0 6.0 10.0 3.0 8.0 10.0 1.0 3.0 7.0 8.0 3.0 0.0 4.0 9.0 2.0 1.0 
9.0 5.0 7.0 1.0 9.0 4.0 6.0 10.0 3.0 2.0 4.0 2.0 0.0 9.0 6.0 8.0 8.0 10.0 7.0 7.0 10.0 3.0 3.0 10.0 9.0 7.0 0.0 10.0 3.0 5.0 3.0 2.0 6.0 0.0 0.0 9.0 6.0 5.0 3.0 10.0 1.0 2.0 9.0 1.0 10.0 4.0 2.0 8.0 5.0 4.0 4.0 7.0 8.0 4.0 3.0 0.0 2.0 3.0 5.0 6.0 1.0 6.0 4.0 9.0 -491.0 10.0 0.0 5.0 4.0 1.0 2.0 10.0 9.0 4.0 1.0 2.0 0.0 4.0 6.0 7.0 9.0 6.0 7.0 5.0 7.0 2.0 8.0 2.0 3.0 10.0 10.0 1.0 7.0 8.0 1.0 2.0 9.0 
10.0 5.0 10.0 2.0 6.0 1.0 3.0 0.0 6.0 2.0 3.0 1.0 9.0 8.0 0.0 9.0 10.0 3.0 4.0 8.0 8.0 6.0 10.0 0.0 9.0 4.0 3.0 3.0 3.0 3.0 8.0 5.0 5.0 9.0 2.0 1.0 1.0 2.0 1.0 0.0 7.0 3.0 6.0 9.0 2.0 3.0 1.0 10.0 3.0 1.0 4.0 1.0 6.0 5.0 8.0 1.0 3.0 3.0 2.0 8.0 3.0 1.0 3.0 9.0 10.0 -461.0 7.0 5.0 3.0 1.0 5.0 10.0 5.0 5.0 3.0 3.0 9.0 5.0 8.0 10.0 5.0 6.0 10.0 5.0 5.0 0.0 8.0 1.0 10.0 2.0 10.0 9.0 3.0 5.0 2.0 6.0 0.0 
4.0 5.0 5.0 10.0 7.0 2.0 3.0 5.0 0.0 0.0 10.0 2.0 9.0 1.0 6.0 3.0 8.0 0.0 5.0 4.0 4.0 7.0 8.0 3.0 9.0 5.0 1.0 4.0 4.0 3.0 3.0 3.0 1.0 7.0 6.0 10.0 4.0 3.0 6.0 9.0 9.0 8.0 10.0 8.0 8.0 3.0 3.0 0.0 4.0 1.0 5.0 9.0 8.0 7.0 0.0 6.0 3.0 10.0 3.0 3.0 1.0 5.0 7.0 7.0 0.0 7.0 -491.0 5.0 5.0 5.0 6.0 0.0 4.0 5.0 10.0 4.0 9.0 2.0 3.0 2.0 9.0 7.0 5.0 8.0 5.0 6.0 4.0 8.0 6.0 9.0 4.0 9.0 5.0 3.0 0.0 10.0 9.0 
1.0 10.0 7.0 8.0 8.0 5.0 5.0 1.0 0.0 7.0 5.0 1.0 3.0 4.0 2.0 1.0 10.0 1.0 3.0 7.0 0.0 7.0 2.0 4.0 2.0 1.0 1.0 6.0 0.0 5.0 10.0 7.0 3.0 6.0 5.0 4.0 0.0 1.0 1.0 7.0 5.0 0.0 2.0 0.0 4.0 8.0 2.0 10.0 8.0 9.0 4.0 4.0 2.0 2.0 4.0 10.0 2.0 10.0 0.0 9.0 6.0 10.0 8.0 8.0 5.0 5.0 5.0 -439.0 9.0 0.0 5.0 10.0 9.0 8.0 2.0 0.0 0.0 9.0 8.0 4.0 5.0 0.0 7.0 3.0 5.0 9.0 3.0 3.0 6.0 8.0 5.0 0.0 7.0 4.0 6.0 1.0 0.0 
1.0 10.0 3.0 1.0 0.0 8.0 9.0 1.0 7.0 6.0 9.0 7.0 4.0 8.0 8.0 2.0 1.0 9.0 1.0 8.0 2.0 0.0 8.0 4.0 6.0 4.0 9.0 8.0 0.0 6.0 6.0 6.0 0.0 8.0 1.0 1.0 1.0 4.0 5.0 10.0 8.0 4.0 7.0 7.0 7.0 8.0 0.0 2.0 1.0 6.0 9.0 5.0 5.0 6.0 0.0 4.0 4.0 0.0 0.0 8.0 8.0 1.0 9.0 0.0 4.0 3.0 5.0 9.0 -456.0 5.0 7.0 8.0 6.0 5.0 6.0 6.0 0.0 9.0 7.0 10.0 3.0 5.0 3.0 0.0 1.0 7.0 8.0 1.0 2.0 2.0 9.0 2.0 1.0 7.0 3.0 9.0 2.0 
5.0 4.0 5.0 8.0 2.0 9.0 6.0 1.0 9.0 10.0 10.0 1.0 1.0 5.0 9.0 4.0 1.0 5.0 10.0 4.0 1.0 8.0 2.0 9.0 2.0 1.0 7.0 2.0 10.0 7.0 0.0 8.0 7.0 4.0 9.0 5.0 1.0 0.0 5.0 6.0 6.0 3.0 10.0 7.0 10.0 5.0 5.0 6.0 9.0 5.0 2.0 4.0 6.0 1.0 8.0 2.0 2.0 6.0 9.0 3.0 3.0 8.0 3.0 5.0 1.0 1.0 5.0 0.0 5.0 -512.0 9.0 4.0 5.0 3.0 7.0 8.0 0.0 10.0 6.0 2.0 8.0 7.0 2.0 9.0 10.0 9.0 3.0 0.0 6.0 9.0 10.0 9.0 7.0 10.0 10.0 1.0 5.0 
3.0 1.0 7.0 4.0 8.0 10.0 10.0 1.0 6.0 4.0 6.0 1.0 8.0 2.0 2.0 6.0 10.0 1.0 3.0 7.0 3.0 2.0 0.0 4.0 9.0 3.0 1.0 5.0 0.0 10.0 6.0 3.0 3.0 0.0 1.0 4.0 8.0 7.0 0.0 2.0 5.0 5.0 1.0 8.0 1.0 2.0 9.0 0.0 10.0 10.0 1.0 6.0 7.0 6.0 6.0 10.0 6.0 5.0 2.0 2.0 3.0 6.0 9.0 7.0 2.0 5.0 6.0 5.0 7.0 9.0 -447.0 0.0 3.0 4.0 3.0 2.0 5.0 8.0 1.0 6.0 7.0 2.0 1.0 6.0 3.0 1.0 1.0 4.0 10.0 2.0 4.0 3.0 10.0 10.0 2.0 7.0 10.0 
4.0 2.0 4.0 8.0 5.0 6.0 6.0 0.0 9.0 4.0 10.0 2.0 8.0 6.0 9.0 1.0 8.0 10.0 3.0 6.0 4.0 1.0 10.0 9.0 7.0 8.0 1.0 2.0 2.0 0.0 7.0 7.0 7.0 1.0 1.0 1.0 1.0 2.0 9.0 2.0 3.0 5.0 6.0 9.0 6.0 7.0 0.0 6.0 4.0 6.0 4.0 1.0 1.0 7.0 4.0 5.0 2.0 8.0 9.0 1.0 8.0 4.0 1.0 5.0 10.0 10.0 0.0 10.0 8.0 4.0 0.0 -470.0 3.0 7.0 6.0 1.0 2.0 1.0 7.0 2.0 0.0 10.0 0.0 6.0 7.0 7.0 0.0 9.0 6.0 9.0 3.0 9.0 6.0 9.0 8.0 4.0 1.0 
0.0 9.0 0.0 9.0 10.0 3.0 0.0 1.0 1.0 6.0 0.0 0.0 3.0 5.0 6.0 5.0 2.0 10.0 1.0 5.0 3.0 5.0 3.0 1.0 3.0 2.0 1.0 10.0 10.0 0.0 5.0 9.0 10.0 6.0 3.0 7.0 8.0 0.0 2.0 8.0 7.0 7.0 0.0 3.0 0.0 1.0 2.0 5.0 10.0 2.0 3.0 7.0 8.0 7.0 2.0 6.0 6.0 6.0 5.0 7.0 3.0 10.0 7.0 5.0 9.0 5.0 4.0 9.0 6.0 5.0 3.0 3.0 -472.0 4.0 5.0 5.0 4.0 8.0 10.0 9.0 8.0 2.0 6.0 10.0 5.0 8.0 2.0 7.0 3.0 0.0 4.0 9.0 5.0 9.0 8.0 3.0 3.0 
8.0 4.0 9.0 5.0 10.0 1.0 6.0 1.0 2.0 7.0 9.0 7.0 8.0 6.0 0.0 9.0 7.0 8.0 3.0 6.0 6.0 5.0 8.0 10.0 6.0 3.0 9.0 6.0 3.0 4.0 7.0 4.0 1.0 7.0 0.0 10.0 5.0 1.0 1.0 5.0 9.0 5.0 7.0 5.0 9.0 5.0 4.0 10.0 4.0 10.0 1.0 10.0 10.0 9.0 6.0 2.0 4.0 5.0 7.0 2.0 6.0 1.0 5.0 8.0 4.0 5.0 5.0 8.0 5.0 3.0 4.0 7.0 4.0 -540.0 7.0 0.0 1.0 9.0 9.0 9.0 6.0 9.0 6.0 0.0 10.0 6.0 1.0 10.0 8.0 10.0 8.0 1.0 5.0 2.0 10.0 5.0 2.0 
6.0 5.0 0.0 3.0 7.0 0.0 6.0 6.0 0.0 10.0 1.0 8.0 3.0 6.0 6.0 1.0 8.0 6.0 3.0 8.0 8.0 10.0 5.0 0.0 3.0 2.0 8.0 0.0 3.0 3.0 1.0 8.0 8.0 9.0 3.0 5.0 2.0 8.0 9.0 4.0 1.0 1.0 0.0 8.0 10.0 4.0 0.0 3.0 4.0 10.0 1.0 8.0 3.0 3.0 6.0 9.0 5.0 1.0 8.0 7.0 6.0 10.0 8.0 7.0 1.0 3.0 10.0 2.0 6.0 7.0 3.0 6.0 5.0 7.0 -508.0 9.0 6.0 8.0 7.0 10.0 10.0 8.0 1.0 0.0 7.0 1.0 8.0 6.0 4.0 10.0 5.0 5.0 7.0 7.0 8.0 8.0 8.0 
3.0 9.0 8.0 5.0 8.0 5.0 0.0 2.0 2.0 4.0 3.0 9.0 9.0 10.0 3.0 4.0 10.0 0.0 10.0 10.0 7.0 0.0 0.0 0.0 4.0 4.0 7.0 3.0 2.0 5.0 4.0 7.0 1.0 5.0 1.0 0.0 10.0 10.0 3.0 2.0 3.0 6.0 0.0 2.0 7.0 9.0 2.0 0.0 10.0 6.0 3.0 6.0 8.0 2.0 0.0 3.0 0.0 2.0 7.0 4.0 2.0 9.0 0.0 3.0 2.0 3.0 4.0 0.0 6.0 8.0 2.0 1.0 5.0 0.0 9.0 -427.0 4.0 3.0 4.0 1.0 6.0 10.0 7.0 5.0 7.0 9.0 0.0 1.0 1.0 8.0 10.0 7.0 3.0 4.0 1.0 9.0 4.0 
1.0 2.0 7.0 1.0 3.0 9.0 10.0 3.0 5.0 0.0 7.0 7.0 2.0 8.0 5.0 0.0 0.0 3.0 6.0 1.0 6.0 0.0 10.0 10.0 4.0 10.0 10.0 6.0 2.0 5.0 8.0 8.0 6.0 5.0 10.0 8.0 9.0 3.0 8.0 7.0 4.0 7.0 0.0 2.0 2.0 8.0 5.0 0.0 2.0 6.0 4.0 2.0 1.0 2.0 5.0 0.0 2.0 1.0 4.0 4.0 10.0 2.0 2.0 4.0 0.0 9.0 9.0 0.0 0.0 0.0 5.0 2.0 4.0 1.0 6.0 4.0 -431.0 5.0 9.0 0.0 4.0 7.0 10.0 1.0 3.0 7.0 10.0 5.0 2.0 2.0 5.0 1.0 7.0 0.0 2.0 7.0 10.0 
0.0 9.0 3.0 5.0 1.0 6.0 3.0 9.0 9.0 8.0 4.0 4.0 7.0 9.0 0.0 10.0 10.0 4.0 8.0 0.0 10.0 2.0 6.0 4.0 8.0 0.0 4.0 1.0 1.0 9.0 1.0 4.0 0.0 8.0 6.0 7.0 1.0 1.0 9.0 10.0 6.0 9.0 9.0 4.0 7.0 8.0 2.0 0.0 6.0 7.0 5.0 5.0 9.0 7.0 10.0 10.0 6.0 1.0 2.0 5.0 3.0 0.0 2.0 8.0 4.0 5.0 2.0 9.0 9.0 10.0 8.0 1.0 8.0 9.0 8.0 3.0 5.0 -527.0 9.0 10.0 9.0 3.0 10.0 8.0 5.0 2.0 10.0 5.0 9.0 5.0 2.0 5.0 10.0 2.0 1.0 2.0 7.0 
5.0 1.0 1.0 1.0 4.0 1.0 0.0 3.0 2.0 0.0 0.0 3.0 0.0 10.0 2.0 0.0 2.0 1.0 5.0 8.0 9.0 7.0 7.0 5.0 0.0 10.0 3.0 10.0 3.0 7.0 5.0 3.0 5.0 1.0 1.0 6.0 0.0 0.0 4.0 3.0 0.0 3.0 4.0 5.0 10.0 5.0 8.0 3.0 2.0 9.0 5.0 9.0 9.0 5.0 5.0 10.0 4.0 10.0 9.0 7.0 5.0 4.0 1.0 7.0 6.0 8.0 3.0 8.0 7.0 6.0 1.0 7.0 10.0 9.0 7.0 4.0 9.0 9.0 -465.0 8.0 10.0 2.0 4.0 10.0 3.0 7.0 3.0 3.0 9.0 4.0 8.0 3.0 1.0 9.0 2.0 5.0 3.0 
5.0 2.0 5.0 6.0 0.0 6.0 2.0 0.0 2.0 8.0 4.0 8.0 1.0 4.0 3.0 2.0 10.0 8.0 4.0 4.0 1.0 4.0 3.0 10.0 8.0 5.0 5.0 7.0 2.0 8.0 1.0 2.0 5.0 6.0 3.0 7.0 7.0 2.0 6.0 1.0 1.0 5.0 8.0 5.0 6.0 6.0 10.0 8.0 9.0 6.0 4.0 2.0 1.0 8.0 8.0 8.0 1.0 6.0 1.0 1.0 4.0 10.0 9.0 5.0 7.0 10.0 2.0 4.0 10.0 2.0 6.0 2.0 9.0 9.0 10.0 1.0 0.0 10.0 8.0 -510.0 6.0 5.0 0.0 9.0 6.0 9.0 9.0 9.0 9.0 3.0 0.0 9.0 2.0 6.0 9.0 10.0 10.0 
9.0 2.0 7.0 9.0 0.0 6.0 0.0 3.0 4.0 6.0 0.0 6.0 4.0 0.0 6.0 7.0 6.0 7.0 4.0 8.0 1.0 2.0 2.0 6.0 5.0 9.0 9.0 10.0 0.0 5.0 1.0 2.0 9.0 9.0 9.0 8.0 5.0 8.0 5.0 9.0 2.0 1.0 7.0 7.0 0.0 2.0 1.0 5.0 1.0 8.0 8.0 5.0 9.0 8.0 0.0 4.0 6.0 3.0 9.0 10.0 9.0 4.0 10.0 3.0 9.0 5.0 9.0 5.0 3.0 8.0 7.0 0.0 8.0 6.0 10.0 6.0 4.0 9.0 10.0 6.0 -508.0 3.0 2.0 4.0 6.0 8.0 5.0 6.0 0.0 2.0 8.0 5.0 0.0 9.0 2.0 10.0 3.0 
7.0 8.0 1.0 5.0 5.0 6.0 5.0 0.0 2.0 1.0 3.0 7.0 5.0 10.0 5.0 6.0 4.0 3.0 8.0 7.0 8.0 7.0 8.0 1.0 8.0 5.0 2.0 3.0 10.0 10.0 3.0 10.0 8.0 8.0 6.0 3.0 5.0 10.0 2.0 0.0 2.0 9.0 7.0 6.0 5.0 1.0 8.0 7.0 10.0 5.0 4.0 1.0 2.0 5.0 9.0 1.0 4.0 8.0 6.0 1.0 10.0 4.0 5.0 10.0 6.0 6.0 7.0 0.0 5.0 7.0 2.0 10.0 2.0 9.0 8.0 10.0 7.0 3.0 2.0 5.0 3.0 -508.0 7.0 1.0 4.0 7.0 9.0 8.0 3.0 1.0 4.0 8.0 1.0 7.0 3.0 6.0 2.0 
10.0 4.0 2.0 6.0 9.0 4.0 1.0 8.0 7.0 7.0 4.0 4.0 0.0 2.0 1.0 8.0 5.0 3.0 10.0 2.0 8.0 1.0 2.0 5.0 5.0 2.0 7.0 8.0 4.0 6.0 7.0 0.0 0.0 1.0 6.0 3.0 0.0 5.0 8.0 6.0 6.0 1.0 0.0 6.0 5.0 3.0 2.0 1.0 10.0 1.0 6.0 4.0 10.0 2.0 0.0 2.0 5.0 1.0 4.0 3.0 10.0 2.0 4.0 6.0 7.0 10.0 5.0 7.0 3.0 2.0 1.0 0.0 6.0 6.0 1.0 7.0 10.0 10.0 4.0 0.0 2.0 7.0 -416.0 10.0 0.0 4.0 10.0 2.0 1.0 2.0 4.0 0.0 4.0 3.0 7.0 1.0 5.0 
6.0 9.0 2.0 1.0 0.0 4.0 9.0 0.0 7.0 2.0 1.0 10.0 8.0 9.0 8.0 1.0 2.0 5.0 2.0 1.0 9.0 8.0 7.0 9.0 9.0 3.0 7.0 3.0 10.0 10.0 0.0 4.0 9.0 9.0 9.0 5.0 9.0 4.0 10.0 0.0 3.0 7.0 3.0 2.0 1.0 6.0 8.0 9.0 4.0 10.0 9.0 8.0 5.0 4.0 10.0 5.0 3.0 5.0 3.0 1.0 7.0 2.0 3.0 10.0 5.0 5.0 8.0 3.0 0.0 9.0 6.0 6.0 10.0 0.0 0.0 5.0 1.0 8.0 10.0 9.0 4.0 1.0 10.0 -536.0 10.0 4.0 4.0 10.0 4.0 9.0 2.0 9.0 5.0 4.0 9.0 8.0 9.0 
7.0 6.0 1.0 7.0 10.0 3.0 3.0 6.0 10.0 6.0 3.0 1.0 6.0 2.0 7.0 2.0 0.0 8.0 5.0 4.0 10.0 9.0 7.0 10.0 1.0 6.0 7.0 6.0 1.0 0.0 3.0 1.0 10.0 2.0 8.0 8.0 3.0 10.0 9.0 8.0 4.0 4.0 8.0 6.0 2.0 9.0 4.0 7.0 8.0 5.0 9.0 9.0 2.0 7.0 4.0 1.0 9.0 4.0 6.0 9.0 3.0 2.0 6.0 3.0 7.0 5.0 5.0 5.0 1.0 10.0 3.0 7.0 5.0 10.0 7.0 7.0 3.0 5.0 3.0 6.0 6.0 4.0 0.0 10.0 -518.0 8.0 0.0 7.0 10.0 7.0 9.0 5.0 3.0 4.0 3.0 3.0 3.0 
4.0 0.0 5.0 1.0 6.0 2.0 2.0 3.0 6.0 3.0 2.0 1.0 8.0 5.0 2.0 4.0 9.0 9.0 7.0 6.0 1.0 8.0 8.0 0.0 10.0 1.0 3.0 0.0 1.0 4.0 8.0 2.0 1.0 5.0 10.0 9.0 8.0 3.0 7.0 4.0 4.0 0.0 10.0 4.0 0.0 5.0 3.0 0.0 5.0 6.0 10.0 1.0 5.0 9.0 7.0 3.0 0.0 7.0 2.0 5.0 3.0 10.0 4.0 8.0 2.0 0.0 6.0 9.0 7.0 9.0 1.0 7.0 8.0 6.0 1.0 9.0 7.0 2.0 7.0 9.0 8.0 7.0 4.0 4.0 8.0 -476.0 8.0 0.0 6.0 8.0 6.0 7.0 5.0 8.0 3.0 6.0 9.0 
9.0 0.0 3.0 9.0 0.0 4.0 9.0 0.0 1.0 7.0 1.0 7.0 3.0 1.0 0.0 3.0 9.0 3.0 2.0 1.0 1.0 5.0 4.0 4.0 0.0 0.0 5.0 9.0 9.0 4.0 6.0 7.0 8.0 6.0 5.0 9.0 4.0 6.0 2.0 1.0 8.0 0.0 5.0 2.0 5.0 6.0 7.0 3.0 5.0 9.0 4.0 8.0 3.0 2.0 1.0 3.0 2.0 9.0 3.0 0.0 1.0 3.0 6.0 10.0 8.0 8.0 4.0 3.0 8.0 3.0 1.0 0.0 2.0 1.0 8.0 0.0 10.0 10.0 3.0 9.0 5.0 9.0 10.0 4.0 0.0 8.0 -430.0 5.0 8.0 6.0 5.0 3.0 0.0 7.0 4.0 2.0 4.0 
1.0 0.0 8.0 5.0 7.0 2.0 4.0 8.0 9.0 10.0 9.0 8.0 1.0 5.0 2.0 0.0 7.0 9.0 5.0 5.0 5.0 4.0 8.0 6.0 6.0 7.0 8.0 10.0 7.0 0.0 9.0 7.0 1.0 10.0 8.0 3.0 7.0 6.0 2.0 2.0 2.0 5.0 2.0 2.0 6.0 0.0 2.0 5.0 4.0 1.0 5.0 2.0 2.0 4.0 5.0 6.0 5.0 9.0 10.0 9.0 1.0 5.0 5.0 1.0 2.0 1.0 8.0 3.0 1.0 0.0 4.0 9.0 7.0 10.0 6.0 1.0 5.0 5.0 3.0 9.0 6.0 8.0 2.0 10.0 7.0 0.0 5.0 -468.0 6.0 3.0 10.0 2.0 2.0 3.0 1.0 3.0 7.0 
8.0 0.0 6.0 10.0 5.0 6.0 0.0 10.0 5.0 7.0 3.0 0.0 9.0 4.0 0.0 8.0 4.0 1.0 10.0 7.0 6.0 8.0 3.0 9.0 6.0 0.0 10.0 2.0 0.0 9.0 5.0 4.0 1.0 8.0 8.0 7.0 9.0 7.0 0.0 0.0 6.0 10.0 9.0 6.0 7.0 6.0 0.0 8.0 7.0 3.0 10.0 9.0 7.0 10.0 10.0 6.0 7.0 3.0 5.0 7.0 5.0 8.0 2.0 3.0 3.0 10.0 6.0 6.0 2.0 6.0 10.0 6.0 3.0 8.0 4.0 1.0 2.0 9.0 9.0 9.0 0.0 3.0 1.0 4.0 10.0 6.0 8.0 6.0 -531.0 6.0 0.0 10.0 4.0 0.0 4.0 6.0 10.0 
2.0 0.0 9.0 2.0 8.0 3.0 7.0 0.0 5.0 10.0 9.0 3.0 4.0 3.0 4.0 5.0 2.0 3.0 10.0 0.0 8.0 0.0 1.0 2.0 4.0 1.0 9.0 6.0 10.0 9.0 10.0 10.0 1.0 7.0 9.0 7.0 4.0 0.0 0.0 7.0 3.0 10.0 3.0 10.0 0.0 7.0 7.0 3.0 6.0 10.0 0.0 6.0 4.0 7.0 2.0 5.0 3.0 5.0 8.0 1.0 6.0 9.0 2.0 7.0 10.0 2.0 9.0 8.0 2.0 9.0 2.0 9.0 0.0 10.0 10.0 8.0 2.0 5.0 4.0 3.0 2.0 1.0 2.0 9.0 7.0 8.0 6.0 3.0 6.0 -480.0 3.0 2.0 9.0 4.0 1.0 1.0 5.0 
9.0 0.0 4.0 2.0 8.0 5.0 6.0 9.0 4.0 5.0 7.0 2.0 2.0 4.0 4.0 7.0 0.0 3.0 5.0 4.0 6.0 2.0 3.0 0.0 4.0 9.0 5.0 7.0 5.0 8.0 1.0 6.0 6.0 3.0 1.0 6.0 6.0 9.0 1.0 10.0 9.0 3.0 7.0 0.0 7.0 3.0 4.0 2.0 3.0 9.0 2.0 9.0 3.0 0.0 1.0 6.0 8.0 7.0 9.0 3.0 8.0 2.0 0.0 8.0 10.0 10.0 4.0 5.0 9.0 10.0 4.0 3.0 4.0 8.0 5.0 10.0 5.0 2.0 8.0 0.0 8.0 4.0 4.0 2.0 9.0 6.0 5.0 10.0 0.0 3.0 -466.0 0.0 0.0 1.0 9.0 4.0 3.0 
10.0 0.0 7.0 4.0 1.0 5.0 0.0 0.0 8.0 1.0 6.0 7.0 2.0 5.0 4.0 9.0 9.0 0.0 6.0 1.0 8.0 3.0 8.0 4.0 10.0 6.0 10.0 3.0 9.0 2.0 0.0 6.0 9.0 3.0 5.0 2.0 6.0 9.0 9.0 3.0 7.0 0.0 7.0 0.0 4.0 2.0 4.0 6.0 2.0 5.0 5.0 0.0 7.0 10.0 10.0 2.0 7.0 8.0 9.0 10.0 10.0 8.0 9.0 3.0 1.0 9.0 9.0 0.0 2.0 9.0 3.0 9.0 9.0 1.0 5.0 7.0 1.0 5.0 3.0 9.0 5.0 8.0 0.0 9.0 5.0 7.0 3.0 2.0 10.0 2.0 0.0 -488.0 0.0 9.0 0.0 3.0 8.0 
1.0 0.0 9.0 10.0 1.0 7.0 9.0 1.0 7.0 5.0 3.0 8.0 5.0 7.0 8.0 0.0 10.0 4.0 10.0 10.0 3.0 2.0 2.0 2.0 2.0 3.0 4.0 4.0 10.0 8.0 5.0 7.0 1.0 10.0 4.0 4.0 10.0 5.0 4.0 5.0 6.0 4.0 0.0 3.0 3.0 6.0 1.0 2.0 10.0 6.0 10.0 2.0 7.0 0.0 1.0 0.0 4.0 5.0 10.0 8.0 9.0 9.0 7.0 0.0 7.0 3.0 5.0 7.0 1.0 7.0 10.0 6.0 5.0 5.0 7.0 3.0 7.0 10.0 1.0 2.0 0.0 1.0 4.0 5.0 3.0 5.0 0.0 2.0 4.0 9.0 0.0 0.0 -470.0 3.0 9.0 10.0 6.0 
5.0 0.0 1.0 8.0 7.0 2.0 10.0 7.0 6.0 9.0 5.0 3.0 1.0 9.0 5.0 0.0 1.0 4.0 4.0 9.0 9.0 4.0 10.0 0.0 1.0 5.0 3.0 8.0 1.0 0.0 3.0 8.0 8.0 4.0 1.0 0.0 1.0 7.0 5.0 0.0 8.0 5.0 9.0 6.0 8.0 5.0 8.0 8.0 10.0 6.0 3.0 9.0 4.0 2.0 5.0 3.0 5.0 3.0 1.0 5.0 5.0 6.0 4.0 4.0 8.0 5.0 3.0 4.0 7.0 10.0 10.0 9.0 9.0 2.0 7.0 4.0 0.0 2.0 9.0 6.0 9.0 7.0 3.0 4.0 4.0 8.0 7.0 3.0 0.0 4.0 1.0 9.0 3.0 -479.0 9.0 3.0 4.0 
0.0 0.0 6.0 3.0 9.0 8.0 5.0 2.0 9.0 3.0 0.0 10.0 4.0 9.0 4.0 1.0 5.0 5.0 1.0 10.0 10.0 1.0 6.0 10.0 5.0 2.0 2.0 4.0 4.0 8.0 0.0 2.0 1.0 3.0 5.0 5.0 6.0 10.0 8.0 3.0 4.0 0.0 4.0 5.0 2.0 4.0 4.0 4.0 7.0 0.0 2.0 4.0 4.0 4.0 7.0 1.0 5.0 0.0 7.0 9.0 5.0 8.0 9.0 9.0 1.0 2.0 0.0 6.0 3.0 10.0 2.0 8.0 8.0 10.0 8.0 1.0 2.0 1.0 2.0 9.0 2.0 3.0 7.0 9.0 3.0 3.0 4.0 1.0 4.0 1.0 9.0 0.0 9.0 9.0 -441.0 1.0 6.0 
0.0 0.0 10.0 8.0 3.0 3.0 9.0 4.0 9.0 1.0 7.0 3.0 3.0 5.0 9.0 9.0 10.0 4.0 9.0 8.0 5.0 5.0 0.0 5.0 7.0 1.0 9.0 2.0 3.0 3.0 2.0 9.0 5.0 6.0 6.0 3.0 7.0 0.0 3.0 5.0 1.0 8.0 8.0 0.0 9.0 4.0 5.0 8.0 5.0 9.0 5.0 1.0 5.0 4.0 10.0 8.0 4.0 2.0 5.0 0.0 1.0 0.0 2.0 2.0 2.0 6.0 10.0 1.0 9.0 1.0 7.0 4.0 3.0 5.0 8.0 9.0 7.0 2.0 5.0 10.0 10.0 6.0 1.0 8.0 3.0 6.0 2.0 3.0 6.0 1.0 4.0 3.0 10.0 3.0 1.0 -472.0 10.0 
0.0 0.0 9.0 9.0 10.0 0.0 1.0 2.0 1.0 5.0 9.0 2.0 6.0 9.0 3.0 10.0 7.0 5.0 9.0 5.0 3.0 3.0 1.0 7.0 6.0 2.0 1.0 4.0 9.0 3.0 1.0 8.0 6.0 1.0 4.0 10.0 5.0 8.0 4.0 3.0 2.0 3.0 0.0 3.0 6.0 10.0 3.0 9.0 3.0 5.0 6.0 10.0 9.0 10.0 3.0 7.0 0.0 9.0 0.0 7.0 1.0 9.0 5.0 1.0 9.0 0.0 9.0 0.0 2.0 5.0 10.0 1.0 3.0 2.0 8.0 4.0 10.0 7.0 3.0 10.0 3.0 2.0 5.0 9.0 3.0 9.0 4.0 7.0 10.0 5.0 3.0 8.0 6.0 4.0 6.0 10.0 -489.0 

